BAYES
400
2 2 2 2 2 2 2 2 2 2 2 2 2 2 2 2 2 2 2 2 2 2 2 2 2 2 2 2 2 2 2 2 2 2 2 2 2 2 2 2 2 2 2 2 2 2 2 2 2 2 2 2 2 2 2 2 2 2 2 2 2 2 2 2 2 2 2 2 2 2 2 2 2 2 2 2 2 2 2 2 2 2 2 2 2 2 2 2 2 2 2 2 2 2 2 2 2 2 2 2 2 2 2 2 2 2 2 2 2 2 2 2 2 2 2 2 2 2 2 2 2 2 2 2 2 2 2 2 2 2 2 2 2 2 2 2 2 2 2 2 2 2 2 2 2 2 2 2 2 2 2 2 2 2 2 2 2 2 2 2 2 2 2 2 2 2 2 2 2 2 2 2 2 2 2 2 2 2 2 2 2 2 2 2 2 2 2 2 2 2 2 2 2 2 2 2 2 2 2 2 2 2 2 2 2 2 2 2 2 2 2 2 2 2 2 2 2 2 2 2 2 2 2 2 2 2 2 2 2 2 2 2 2 2 2 2 2 2 2 2 2 2 2 2 2 2 2 2 2 2 2 2 2 2 2 2 2 2 2 2 2 2 2 2 2 2 2 2 2 2 2 2 2 2 2 2 2 2 2 2 2 2 2 2 2 2 2 2 2 2 2 2 2 2 2 2 2 2 2 2 2 2 2 2 2 2 2 2 2 2 2 2 2 2 2 2 2 2 2 2 2 2 2 2 2 2 2 2 2 2 2 2 2 2 2 2 2 2 2 2 2 2 2 2 2 2 2 2 2 2 2 2 2 2 2 2 2 2 2 2 2 2 2 2 2 2 2 2 2 2 2 2 2 2 2 2 2 2 2 2 2 2 2 2 2 2 2 2 2 2 2 2 2 2 2 2 2 2 2 2
400
3 1 20 0
3 2 21 1
3 3 22 2
3 4 23 3
3 5 24 4
3 6 25 5
3 7 26 6
3 8 27 7
3 9 28 8
3 10 29 9
3 11 30 10
3 12 31 11
3 13 32 12
3 14 33 13
3 15 34 14
3 16 35 15
3 17 36 16
3 18 37 17
3 19 38 18
2 20 19
3 21 40 20
3 22 41 21
3 23 42 22
3 24 43 23
3 25 44 24
3 26 45 25
3 27 46 26
3 28 47 27
3 29 48 28
3 30 49 29
3 31 50 30
3 32 51 31
3 33 52 32
3 34 53 33
3 35 54 34
3 36 55 35
3 37 56 36
3 38 57 37
3 39 58 38
2 40 39
3 41 60 40
3 42 61 41
3 43 62 42
3 44 63 43
3 45 64 44
3 46 65 45
3 47 66 46
3 48 67 47
3 49 68 48
3 50 69 49
3 51 70 50
3 52 71 51
3 53 72 52
3 54 73 53
3 55 74 54
3 56 75 55
3 57 76 56
3 58 77 57
3 59 78 58
2 60 59
3 61 80 60
3 62 81 61
3 63 82 62
3 64 83 63
3 65 84 64
3 66 85 65
3 67 86 66
3 68 87 67
3 69 88 68
3 70 89 69
3 71 90 70
3 72 91 71
3 73 92 72
3 74 93 73
3 75 94 74
3 76 95 75
3 77 96 76
3 78 97 77
3 79 98 78
2 80 79
3 81 100 80
3 82 101 81
3 83 102 82
3 84 103 83
3 85 104 84
3 86 105 85
3 87 106 86
3 88 107 87
3 89 108 88
3 90 109 89
3 91 110 90
3 92 111 91
3 93 112 92
3 94 113 93
3 95 114 94
3 96 115 95
3 97 116 96
3 98 117 97
3 99 118 98
2 100 99
3 101 120 100
3 102 121 101
3 103 122 102
3 104 123 103
3 105 124 104
3 106 125 105
3 107 126 106
3 108 127 107
3 109 128 108
3 110 129 109
3 111 130 110
3 112 131 111
3 113 132 112
3 114 133 113
3 115 134 114
3 116 135 115
3 117 136 116
3 118 137 117
3 119 138 118
2 120 119
3 121 140 120
3 122 141 121
3 123 142 122
3 124 143 123
3 125 144 124
3 126 145 125
3 127 146 126
3 128 147 127
3 129 148 128
3 130 149 129
3 131 150 130
3 132 151 131
3 133 152 132
3 134 153 133
3 135 154 134
3 136 155 135
3 137 156 136
3 138 157 137
3 139 158 138
2 140 139
3 141 160 140
3 142 161 141
3 143 162 142
3 144 163 143
3 145 164 144
3 146 165 145
3 147 166 146
3 148 167 147
3 149 168 148
3 150 169 149
3 151 170 150
3 152 171 151
3 153 172 152
3 154 173 153
3 155 174 154
3 156 175 155
3 157 176 156
3 158 177 157
3 159 178 158
2 160 159
3 161 180 160
3 162 181 161
3 163 182 162
3 164 183 163
3 165 184 164
3 166 185 165
3 167 186 166
3 168 187 167
3 169 188 168
3 170 189 169
3 171 190 170
3 172 191 171
3 173 192 172
3 174 193 173
3 175 194 174
3 176 195 175
3 177 196 176
3 178 197 177
3 179 198 178
2 180 179
3 181 200 180
3 182 201 181
3 183 202 182
3 184 203 183
3 185 204 184
3 186 205 185
3 187 206 186
3 188 207 187
3 189 208 188
3 190 209 189
3 191 210 190
3 192 211 191
3 193 212 192
3 194 213 193
3 195 214 194
3 196 215 195
3 197 216 196
3 198 217 197
3 199 218 198
2 200 199
3 201 220 200
3 202 221 201
3 203 222 202
3 204 223 203
3 205 224 204
3 206 225 205
3 207 226 206
3 208 227 207
3 209 228 208
3 210 229 209
3 211 230 210
3 212 231 211
3 213 232 212
3 214 233 213
3 215 234 214
3 216 235 215
3 217 236 216
3 218 237 217
3 219 238 218
2 220 219
3 221 240 220
3 222 241 221
3 223 242 222
3 224 243 223
3 225 244 224
3 226 245 225
3 227 246 226
3 228 247 227
3 229 248 228
3 230 249 229
3 231 250 230
3 232 251 231
3 233 252 232
3 234 253 233
3 235 254 234
3 236 255 235
3 237 256 236
3 238 257 237
3 239 258 238
2 240 239
3 241 260 240
3 242 261 241
3 243 262 242
3 244 263 243
3 245 264 244
3 246 265 245
3 247 266 246
3 248 267 247
3 249 268 248
3 250 269 249
3 251 270 250
3 252 271 251
3 253 272 252
3 254 273 253
3 255 274 254
3 256 275 255
3 257 276 256
3 258 277 257
3 259 278 258
2 260 259
3 261 280 260
3 262 281 261
3 263 282 262
3 264 283 263
3 265 284 264
3 266 285 265
3 267 286 266
3 268 287 267
3 269 288 268
3 270 289 269
3 271 290 270
3 272 291 271
3 273 292 272
3 274 293 273
3 275 294 274
3 276 295 275
3 277 296 276
3 278 297 277
3 279 298 278
2 280 279
3 281 300 280
3 282 301 281
3 283 302 282
3 284 303 283
3 285 304 284
3 286 305 285
3 287 306 286
3 288 307 287
3 289 308 288
3 290 309 289
3 291 310 290
3 292 311 291
3 293 312 292
3 294 313 293
3 295 314 294
3 296 315 295
3 297 316 296
3 298 317 297
3 299 318 298
2 300 299
3 301 320 300
3 302 321 301
3 303 322 302
3 304 323 303
3 305 324 304
3 306 325 305
3 307 326 306
3 308 327 307
3 309 328 308
3 310 329 309
3 311 330 310
3 312 331 311
3 313 332 312
3 314 333 313
3 315 334 314
3 316 335 315
3 317 336 316
3 318 337 317
3 319 338 318
2 320 319
3 321 340 320
3 322 341 321
3 323 342 322
3 324 343 323
3 325 344 324
3 326 345 325
3 327 346 326
3 328 347 327
3 329 348 328
3 330 349 329
3 331 350 330
3 332 351 331
3 333 352 332
3 334 353 333
3 335 354 334
3 336 355 335
3 337 356 336
3 338 357 337
3 339 358 338
2 340 339
3 341 360 340
3 342 361 341
3 343 362 342
3 344 363 343
3 345 364 344
3 346 365 345
3 347 366 346
3 348 367 347
3 349 368 348
3 350 369 349
3 351 370 350
3 352 371 351
3 353 372 352
3 354 373 353
3 355 374 354
3 356 375 355
3 357 376 356
3 358 377 357
3 359 378 358
2 360 359
3 361 380 360
3 362 381 361
3 363 382 362
3 364 383 363
3 365 384 364
3 366 385 365
3 367 386 366
3 368 387 367
3 369 388 368
3 370 389 369
3 371 390 370
3 372 391 371
3 373 392 372
3 374 393 373
3 375 394 374
3 376 395 375
3 377 396 376
3 378 397 377
3 379 398 378
2 380 379
2 400 380
2 401 381
2 402 382
2 403 383
2 404 384
2 405 385
2 406 386
2 407 387
2 408 388
2 409 389
2 410 390
2 411 391
2 412 392
2 413 393
2 414 394
2 415 395
2 416 396
2 417 397
2 418 398
1  399
8
0.30038091176711723 0.6996190882328828 0.10996026469844265 0.8900397353015573 0.2882285236317142 0.7117714763682859 0.02912474448492546 0.9708752555150746
8
0 1 0 1 1 0 0 1
8
0 1 1 0 0 1 1 0
8
1 0 1 0 1 0 1 0
8
0 1 1 0 1 0 0 1
8
1 0 0 1 0 1 1 0
8
1 0 0 1 0 1 1 0
8
0 1 0 1 0 1 1 0
8
0 1 0 1 1 0 1 0
8
0 1 1 0 1 0 0 1
8
1 0 0 1 0 1 1 0
8
0 1 1 0 0 1 0 1
8
1 0 1 0 1 0 1 0
8
0 1 0 1 1 0 1 0
8
0 1 1 0 0 1 1 0
8
1 0 1 0 1 0 1 0
8
1 0 1 0 0 1 1 0
8
1 0 0 1 1 0 1 0
8
1 0 1 0 1 0 1 0
4
1 0 0 1
8
1 0 1 0 0 1 1 0
8
0 1 1 0 1 0 0 1
8
1 0 1 0 1 0 1 0
8
1 0 1 0 0 1 0 1
8
0 1 0 1 1 0 1 0
8
0 1 1 0 1 0 1 0
8
1 0 0 1 0 1 0 1
8
0.8948984745957869 0.10510152540421312 0.578715633185472 0.42128436681452797 0.40538145187680474 0.5946185481231954 0.2940566621408087 0.7059433378591913
8
0 1 0 1 1 0 1 0
8
0 1 0 1 1 0 1 0
8
0 1 0 1 0 1 0 1
8
0 1 1 0 1 0 1 0
8
1 0 0 1 1 0 1 0
8
0 1 0 1 1 0 1 0
8
1 0 1 0 0 1 0 1
8
1 0 1 0 1 0 0 1
8
0 1 0 1 1 0 0 1
8
1 0 0 1 0 1 1 0
8
1 0 0 1 0 1 0 1
4
0 1 1 0
8
1 0 0 1 0 1 0 1
8
0.5810680995440404 0.4189319004559597 0.8384491464642415 0.1615508535357585 0.6534741787953987 0.3465258212046013 0.6325311530152165 0.36746884698478355
8
0 1 1 0 1 0 0 1
8
1 0 1 0 0 1 0 1
8
1 0 0 1 1 0 1 0
8
0 1 0 1 0 1 0 1
8
0 1 1 0 0 1 1 0
8
1 0 1 0 1 0 1 0
8
1 0 0 1 1 0 1 0
8
1 0 1 0 0 1 1 0
8
1 0 0 1 1 0 0 1
8
0 1 1 0 1 0 1 0
8
0 1 0 1 1 0 0 1
8
0 1 1 0 0 1 1 0
8
1 0 0 1 1 0 0 1
8
0 1 1 0 0 1 1 0
8
1 0 0 1 1 0 0 1
8
0.3426052978557523 0.6573947021442478 0.52667447861968 0.47332552138031997 0.415703046781933 0.584296953218067 0.38150726757588416 0.6184927324241158
8
1 0 1 0 1 0 1 0
4
0 1 0 1
8
1 0 0 1 1 0 0 1
8
0 1 1 0 0 1 0 1
8
0 1 1 0 1 0 1 0
8
0.1210016084001653 0.8789983915998347 0.4686697862703461 0.5313302137296538 0.9917771448004852 0.00822285519951487 0.9775463047310192 0.022453695268980806
8
0 1 0 1 1 0 0 1
8
1 0 1 0 1 0 1 0
8
1 0 1 0 1 0 0 1
8
0 1 1 0 1 0 0 1
8
1 0 0 1 1 0 0 1
8
1 0 0 1 0 1 1 0
8
1 0 0 1 0 1 0 1
8
1 0 1 0 0 1 1 0
8
1 0 1 0 0 1 0 1
8
0 1 1 0 0 1 0 1
8
0 1 0 1 1 0 0 1
8
0 1 0 1 0 1 0 1
8
0 1 0 1 0 1 0 1
8
0 1 1 0 1 0 0 1
8
1 0 1 0 0 1 1 0
4
0 1 1 0
8
1 0 1 0 0 1 1 0
8
1 0 1 0 0 1 1 0
8
0.9791821611997236 0.020817838800276395 0.7293060594126941 0.2706939405873059 0.12667954501387244 0.8733204549861275 0.8640905810802724 0.13590941891972763
8
0 1 0 1 1 0 0 1
8
1 0 0 1 1 0 0 1
8
1 0 1 0 1 0 0 1
8
0 1 0 1 1 0 1 0
8
1 0 0 1 0 1 1 0
8
0.5880349685235218 0.41196503147647817 0.00013572086402587028 0.9998642791359741 0.06665789217893198 0.9333421078210681 0.2988304216197838 0.7011695783802162
8
0.6884777530188182 0.31152224698118175 0.8245810348981483 0.1754189651018516 0.3942805463128862 0.6057194536871138 0.5950818930739951 0.4049181069260049
8
0 1 0 1 1 0 1 0
8
1 0 0 1 1 0 1 0
8
0 1 0 1 0 1 0 1
8
1 0 1 0 0 1 0 1
8
1 0 1 0 1 0 0 1
8
1 0 1 0 0 1 1 0
8
0.49920925161725377 0.5007907483827462 0.48371931528555906 0.5162806847144409 0.8296692029322992 0.17033079706770085 0.4500505584416111 0.549949441558389
8
0 1 1 0 1 0 0 1
8
1 0 1 0 1 0 1 0
4
0.1670256718184843 0.8329743281815157 0.47415233689080594 0.5258476631091941
8
0 1 0 1 0 1 1 0
8
0 1 0 1 0 1 1 0
8
0 1 0 1 0 1 0 1
8
0 1 1 0 1 0 0 1
8
0 1 0 1 1 0 0 1
8
1 0 0 1 0 1 0 1
8
1 0 1 0 0 1 1 0
8
1 0 1 0 1 0 1 0
8
0 1 1 0 1 0 1 0
8
0 1 1 0 1 0 1 0
8
1 0 0 1 1 0 1 0
8
0 1 0 1 0 1 0 1
8
1 0 1 0 1 0 1 0
8
0.4104229576128492 0.5895770423871508 0.5037258086966893 0.49627419130331074 0.6491065286897104 0.3508934713102896 0.4350692356620684 0.5649307643379315
8
0 1 0 1 0 1 0 1
8
0 1 1 0 0 1 1 0
8
0 1 1 0 0 1 0 1
8
1 0 0 1 0 1 0 1
8
0 1 0 1 1 0 1 0
4
1 0 1 0
8
1 0 0 1 0 1 1 0
8
1 0 0 1 1 0 1 0
8
1 0 0 1 1 0 1 0
8
0 1 1 0 0 1 0 1
8
0 1 1 0 0 1 0 1
8
1 0 1 0 1 0 0 1
8
1 0 1 0 0 1 0 1
8
0 1 1 0 0 1 0 1
8
0 1 1 0 0 1 1 0
8
1 0 1 0 1 0 0 1
8
0 1 1 0 1 0 1 0
8
0 1 0 1 1 0 0 1
8
0 1 0 1 0 1 1 0
8
0 1 0 1 1 0 0 1
8
1 0 1 0 1 0 1 0
8
1 0 1 0 0 1 0 1
8
0 1 1 0 0 1 0 1
8
1 0 0 1 0 1 0 1
8
0 1 0 1 0 1 1 0
4
0 1 1 0
8
0 1 0 1 0 1 1 0
8
1 0 1 0 1 0 0 1
8
1 0 1 0 0 1 0 1
8
0 1 1 0 1 0 0 1
8
0 1 0 1 0 1 1 0
8
0 1 0 1 1 0 0 1
8
0 1 0 1 0 1 1 0
8
0 1 0 1 1 0 0 1
8
1 0 1 0 1 0 0 1
8
0 1 0 1 0 1 0 1
8
1 0 0 1 0 1 0 1
8
1 0 0 1 1 0 0 1
8
0 1 1 0 0 1 0 1
8
0 1 0 1 0 1 0 1
8
1 0 1 0 0 1 0 1
8
0 1 1 0 1 0 0 1
8
1 0 0 1 1 0 0 1
8
1 0 0 1 0 1 0 1
8
0.3044425231438388 0.6955574768561611 0.8781245966651605 0.12187540333483954 0.5784935561803969 0.42150644381960317 0.011766889825968562 0.9882331101740315
4
0 1 0 1
8
0.36238714175083314 0.6376128582491668 0.2542731460751311 0.745726853924869 0.4187637143100177 0.5812362856899824 0.5202625107338003 0.4797374892661997
8
0 1 0 1 0 1 1 0
8
0 1 1 0 1 0 0 1
8
1 0 1 0 1 0 0 1
8
0 1 1 0 0 1 0 1
8
1 0 1 0 1 0 1 0
8
0 1 0 1 0 1 1 0
8
0 1 0 1 0 1 1 0
8
1 0 1 0 1 0 0 1
8
1 0 0 1 0 1 0 1
8
1 0 1 0 1 0 1 0
8
0 1 1 0 1 0 1 0
8
0 1 0 1 0 1 1 0
8
1 0 1 0 0 1 0 1
8
1 0 1 0 0 1 0 1
8
0 1 0 1 0 1 1 0
8
1 0 0 1 1 0 0 1
8
0.3864007283456163 0.6135992716543837 0.8749064026328608 0.12509359736713924 0.9031818914676197 0.0968181085323804 0.5375641297511884 0.4624358702488116
8
1 0 0 1 0 1 1 0
4
0 1 0 1
8
1 0 0 1 0 1 0 1
8
0 1 0 1 0 1 1 0
8
0 1 1 0 1 0 1 0
8
1 0 1 0 1 0 1 0
8
1 0 0 1 0 1 0 1
8
1 0 1 0 1 0 0 1
8
1 0 1 0 1 0 0 1
8
0 1 1 0 0 1 1 0
8
1 0 1 0 1 0 0 1
8
1 0 0 1 1 0 1 0
8
1 0 0 1 1 0 0 1
8
1 0 1 0 1 0 0 1
8
1 0 1 0 0 1 1 0
8
1 0 1 0 0 1 0 1
8
1 0 0 1 0 1 0 1
8
1 0 1 0 1 0 0 1
8
0 1 1 0 1 0 1 0
8
0 1 0 1 1 0 1 0
8
0 1 0 1 1 0 0 1
4
0 1 0 1
8
0 1 0 1 0 1 0 1
8
1 0 0 1 1 0 1 0
8
0 1 1 0 1 0 0 1
8
0 1 0 1 1 0 1 0
8
0.5221585575069263 0.47784144249307375 0.9958291320955152 0.0041708679044848455 0.8277536378168855 0.1722463621831145 0.39926811935090484 0.6007318806490952
8
0.5907862610068724 0.40921373899312774 0.6093903042521861 0.39060969574781396 0.6349594628742031 0.36504053712579676 0.8343610441463941 0.16563895585360586
8
0 1 1 0 1 0 0 1
8
1 0 1 0 0 1 0 1
8
1 0 0 1 1 0 1 0
8
1 0 1 0 0 1 0 1
8
1 0 1 0 0 1 1 0
8
0 1 1 0 0 1 1 0
8
1 0 0 1 1 0 0 1
8
0 1 0 1 0 1 1 0
8
0 1 1 0 0 1 1 0
8
0 1 0 1 1 0 0 1
8
1 0 0 1 1 0 0 1
8
0.31789430035180927 0.6821056996481907 0.997596460915664 0.0024035390843360083 0.5864033789783073 0.4135966210216927 0.42249535602423266 0.5775046439757673
8
0 1 1 0 1 0 1 0
4
0 1 1 0
8
0 1 0 1 1 0 0 1
8
0 1 1 0 0 1 0 1
8
0 1 0 1 1 0 1 0
8
1 0 1 0 0 1 0 1
8
0.5422251059932124 0.45777489400678756 0.5368381224548202 0.4631618775451798 0.8737220395543146 0.12627796044568543 0.12112640145879497 0.8788735985412051
8
0 1 1 0 0 1 1 0
8
0 1 0 1 0 1 1 0
8
0 1 1 0 0 1 0 1
8
1 0 0 1 1 0 0 1
8
0 1 1 0 1 0 1 0
8
0 1 1 0 1 0 1 0
8
0 1 0 1 0 1 0 1
8
0 1 1 0 0 1 1 0
8
1 0 0 1 1 0 0 1
8
1 0 0 1 0 1 0 1
8
1 0 0 1 0 1 1 0
8
1 0 1 0 1 0 0 1
8
0 1 1 0 0 1 0 1
8
0 1 0 1 1 0 0 1
4
0 1 0 1
8
1 0 1 0 0 1 1 0
8
0.8029851479099457 0.19701485209005437 0.3720253746739181 0.6279746253260818 0.5259938598532681 0.4740061401467319 0.5408734928280722 0.45912650717192777
8
1 0 0 1 1 0 0 1
8
0 1 1 0 1 0 0 1
8
0.8860136390010865 0.11398636099891359 0.38731044071107923 0.6126895592889208 0.21693495907672056 0.7830650409232794 0.6008323058465848 0.39916769415341524
8
0 1 1 0 0 1 0 1
8
0 1 1 0 0 1 1 0
8
0 1 1 0 0 1 0 1
8
1 0 1 0 1 0 1 0
8
0 1 1 0 0 1 1 0
8
1 0 1 0 1 0 0 1
8
0.8617989788599222 0.13820102114007785 0.35015351510559095 0.6498464848944091 0.5017613254467369 0.49823867455326304 0.33796499842796435 0.6620350015720357
8
0 1 0 1 0 1 0 1
8
1 0 1 0 0 1 1 0
8
1 0 0 1 1 0 0 1
8
0 1 1 0 0 1 1 0
8
0 1 0 1 0 1 1 0
8
1 0 0 1 1 0 1 0
8
1 0 1 0 1 0 1 0
4
1 0 1 0
8
0.17120596788150297 0.8287940321184969 0.6144599457301884 0.3855400542698116 0.002719114803509852 0.9972808851964902 0.18476383702413104 0.815236162975869
8
0 1 0 1 0 1 0 1
8
0 1 0 1 1 0 1 0
8
0 1 1 0 0 1 0 1
8
0.6712549389892388 0.3287450610107612 0.9468803468435846 0.05311965315641547 0.6374899506866095 0.3625100493133906 0.5705496521692758 0.42945034783072417
8
1 0 0 1 1 0 0 1
8
1 0 0 1 1 0 1 0
8
0.017161789286099093 0.982838210713901 0.5910164136458366 0.4089835863541635 0.8175343030062217 0.18246569699377843 0.5173847431599484 0.4826152568400516
8
0 1 1 0 0 1 0 1
8
0.4635413979189409 0.5364586020810591 0.42866185782722194 0.5713381421727781 0.18507481751303761 0.8149251824869624 0.03478711749330134 0.9652128825066987
8
1 0 0 1 0 1 0 1
8
0.5108222674054349 0.48917773259456504 0.6155224476105824 0.38447755238941766 0.9696608378220816 0.030339162177918415 0.7429669465491517 0.2570330534508483
8
0 1 1 0 0 1 0 1
8
0 1 1 0 1 0 0 1
8
1 0 1 0 1 0 0 1
8
1 0 0 1 1 0 0 1
8
1 0 0 1 1 0 0 1
8
0 1 0 1 0 1 1 0
8
0 1 0 1 1 0 0 1
4
0 1 1 0
8
1 0 0 1 1 0 0 1
8
1 0 0 1 1 0 1 0
8
1 0 0 1 1 0 1 0
8
0 1 1 0 1 0 0 1
8
1 0 1 0 1 0 0 1
8
1 0 0 1 0 1 1 0
8
0.11901365990616428 0.8809863400938357 0.31913794610193863 0.6808620538980613 0.7844955043635554 0.21550449563644464 0.504258071109337 0.49574192889066304
8
1 0 1 0 1 0 1 0
8
0 1 0 1 1 0 1 0
8
0.21461197516155966 0.7853880248384403 0.6791285554509683 0.32087144454903177 0.8727731611226281 0.1272268388773718 0.020568650978744104 0.979431349021256
8
1 0 1 0 0 1 0 1
8
0.5437833525500024 0.45621664744999757 0.7965041096964793 0.20349589030352055 0.6925396834293608 0.30746031657063927 0.42693247119122624 0.5730675288087738
8
0 1 0 1 1 0 1 0
8
0 1 1 0 0 1 1 0
8
0 1 0 1 0 1 0 1
8
0 1 1 0 1 0 1 0
8
1 0 1 0 0 1 0 1
8
1 0 0 1 1 0 1 0
8
1 0 0 1 1 0 1 0
4
0 1 0 1
8
0 1 0 1 1 0 0 1
8
0 1 0 1 1 0 0 1
8
0 1 0 1 1 0 1 0
8
1 0 1 0 0 1 0 1
8
1 0 0 1 0 1 1 0
8
0.5832074372975619 0.4167925627024382 0.37009565817251117 0.6299043418274889 0.7257065973404849 0.2742934026595151 0.5604670766324535 0.43953292336754646
8
1 0 1 0 1 0 1 0
8
1 0 1 0 0 1 0 1
8
1 0 0 1 1 0 1 0
8
1 0 1 0 1 0 0 1
8
0.49322553941012376 0.5067744605898763 0.6477238055697953 0.3522761944302047 0.2653492269316853 0.7346507730683147 0.3296827058502593 0.6703172941497406
8
0 1 0 1 1 0 0 1
8
1 0 1 0 1 0 1 0
8
1 0 0 1 0 1 0 1
8
0 1 1 0 0 1 1 0
8
0 1 1 0 0 1 1 0
8
0 1 1 0 0 1 0 1
8
1 0 0 1 0 1 1 0
8
1 0 1 0 1 0 1 0
4
1 0 0 1
8
0.4715612180554478 0.5284387819445523 0.6613719393299522 0.33862806067004775 0.5397648243037719 0.4602351756962281 0.5164025075082879 0.48359749249171224
8
0 1 0 1 1 0 1 0
8
1 0 0 1 0 1 0 1
8
1 0 0 1 0 1 0 1
8
0 1 0 1 1 0 0 1
8
0 1 1 0 0 1 1 0
8
0 1 0 1 0 1 1 0
8
0 1 0 1 1 0 1 0
8
1 0 1 0 0 1 1 0
8
0 1 1 0 0 1 1 0
8
0 1 0 1 1 0 1 0
8
1 0 0 1 0 1 0 1
8
0 1 0 1 1 0 0 1
8
0 1 0 1 0 1 0 1
8
0.9249897964849613 0.07501020351503876 0.43011363719077084 0.5698863628092292 0.3357707689380002 0.6642292310619998 0.9420041537845936 0.057995846215406356
8
0 1 0 1 1 0 1 0
8
1 0 0 1 1 0 0 1
8
0.5586353704119004 0.44136462958809963 0.19477931399480178 0.8052206860051982 0.16787302705143514 0.8321269729485649 0.484099545495196 0.515900454504804
8
1 0 0 1 1 0 1 0
4
0.5597956896966049 0.44020431030339513 0.5381395577571331 0.46186044224286693
8
0 1 1 0 0 1 0 1
8
0 1 1 0 1 0 0 1
8
0 1 0 1 1 0 0 1
8
1 0 1 0 0 1 1 0
8
1 0 1 0 0 1 0 1
8
1 0 1 0 0 1 1 0
8
0 1 1 0 0 1 0 1
8
0 1 0 1 1 0 1 0
8
0.4978855249289573 0.5021144750710427 0.3298949674691952 0.6701050325308049 0.65325178605799 0.34674821394201005 0.20012709410821908 0.799872905891781
8
0 1 1 0 0 1 1 0
8
1 0 1 0 0 1 0 1
8
0 1 0 1 1 0 1 0
8
0 1 1 0 1 0 1 0
8
1 0 1 0 0 1 0 1
8
1 0 0 1 0 1 0 1
8
0.3766176657408014 0.6233823342591985 0.8264467025346072 0.17355329746539297 0.7933031796528872 0.20669682034711262 0.43022369973461205 0.569776300265388
8
0 1 1 0 0 1 1 0
8
0 1 0 1 1 0 0 1
8
1 0 0 1 1 0 0 1
4
0 1 1 0
8
0.6761348989239602 0.32386510107603983 0.5357105117602127 0.46428948823978733 0.4213313245916694 0.5786686754083307 0.677430904114923 0.3225690958850771
8
0 1 0 1 0 1 0 1
8
1 0 0 1 1 0 0 1
8
0 1 1 0 1 0 1 0
8
1 0 1 0 0 1 1 0
8
1 0 0 1 0 1 0 1
8
0.6414252158427891 0.3585747841572109 0.5577641314863302 0.44223586851366986 0.253335964191883 0.746664035808117 0.2141667310089105 0.7858332689910895
8
1 0 0 1 0 1 0 1
8
0 1 1 0 1 0 1 0
8
0 1 0 1 1 0 0 1
8
0 1 1 0 0 1 0 1
8
1 0 0 1 1 0 0 1
8
1 0 1 0 1 0 0 1
8
1 0 1 0 1 0 0 1
8
0 1 1 0 0 1 1 0
8
1 0 1 0 1 0 0 1
8
0 1 1 0 1 0 1 0
8
1 0 0 1 0 1 0 1
8
1 0 1 0 1 0 1 0
4
0 1 0 1
4
0 1 0 1
4
1 0 1 0
4
1 0 0 1
4
0 1 0 1
4
0 1 1 0
4
1 0 0 1
4
0 1 0 1
4
1 0 0 1
4
0 1 0 1
4
0 1 1 0
4
1 0 1 0
4
0 1 1 0
4
0 1 0 1
4
1 0 1 0
4
1 0 1 0
4
0.8698544457576955 0.13014555424230445 0.5048470409897768 0.4951529590102231
4
0 1 1 0
4
0 1 1 0
4
1 0 0 1
2
1 0
